(set-logic QF_S)
(declare-fun T_11 () Bool)
(declare-fun T_12 () Bool)
(declare-fun T_SELECT_4 () Bool)
(declare-fun I0_20 () Int)
(declare-fun PCTEMP_LHS_4 () Int)
(declare-fun T0_20 () String)
(declare-fun T1_20 () String)
(declare-fun T2_20 () String)
(declare-fun T3_20 () String)
(declare-fun T4_20 () String)
(declare-fun T5_20 () String)
(declare-fun var_0xINPUT_174730 () String)
(assert (= var_0xINPUT_174730 (str.++ T0_20 T1_20)))
(assert (= T1_20 (str.++ T2_20 T3_20)))
(assert (= T2_20 (str.++ T4_20 T5_20)))
(assert (not (str.in.re T4_20 (str.to.re "__utma=16886264."))))
(assert (= T5_20 "__utma=16886264."))
(assert T_12)
(assert (= T_12 (not T_11)))
(assert (= T_11 (< (- 1) PCTEMP_LHS_4)))
(assert (= PCTEMP_LHS_4 (+ I0_20 0)))
(assert (= T_SELECT_4 (not (= PCTEMP_LHS_4 (- 1)))))
(assert (= 0 (str.len T0_20))) ; len 0
(assert (= I0_20 (str.len T4_20))) ; len 1
(assert T_SELECT_4)
(check-sat)
